c *********************************
c * Circuit generated by BenCGen
c *
c * NonRestoringArrayDivider_8
c *
c * Ports with 1 gate(s): 9
c * Ports with 2 gate(s): 385
c * Total gates: 394
c *********************************
p cnf 425 1365
1 48 0
-1 -48 0
1 -47 0
48 -47 0
-1 -48 47 0
47 49 0
-47 -49 0
47 -40 0
-47 40 0
47 -41 0
-47 41 0
47 -42 0
-47 42 0
47 -43 0
-47 43 0
47 -44 0
-47 44 0
47 -45 0
-47 45 0
47 -46 0
-47 46 0
49 16 -59 0
-49 16 59 0
49 -16 59 0
-49 -16 -59 0
8 59 -60 0
-8 59 60 0
8 -59 60 0
-8 -59 -60 0
60 49 -50 0
-60 49 50 0
60 -49 50 0
-60 -49 -50 0
49 -61 0
60 -61 0
-49 -60 61 0
59 -62 0
8 -62 0
-59 -8 62 0
-61 58 0
-62 58 0
61 62 -58 0
49 17 -64 0
-49 17 64 0
49 -17 64 0
-49 -17 -64 0
9 64 -65 0
-9 64 65 0
9 -64 65 0
-9 -64 -65 0
65 58 -51 0
-65 58 51 0
65 -58 51 0
-65 -58 -51 0
58 -66 0
65 -66 0
-58 -65 66 0
64 -67 0
9 -67 0
-64 -9 67 0
-66 63 0
-67 63 0
66 67 -63 0
49 18 -69 0
-49 18 69 0
49 -18 69 0
-49 -18 -69 0
10 69 -70 0
-10 69 70 0
10 -69 70 0
-10 -69 -70 0
70 63 -52 0
-70 63 52 0
70 -63 52 0
-70 -63 -52 0
63 -71 0
70 -71 0
-63 -70 71 0
69 -72 0
10 -72 0
-69 -10 72 0
-71 68 0
-72 68 0
71 72 -68 0
49 19 -74 0
-49 19 74 0
49 -19 74 0
-49 -19 -74 0
11 74 -75 0
-11 74 75 0
11 -74 75 0
-11 -74 -75 0
75 68 -53 0
-75 68 53 0
75 -68 53 0
-75 -68 -53 0
68 -76 0
75 -76 0
-68 -75 76 0
74 -77 0
11 -77 0
-74 -11 77 0
-76 73 0
-77 73 0
76 77 -73 0
49 20 -79 0
-49 20 79 0
49 -20 79 0
-49 -20 -79 0
12 79 -80 0
-12 79 80 0
12 -79 80 0
-12 -79 -80 0
80 73 -54 0
-80 73 54 0
80 -73 54 0
-80 -73 -54 0
73 -81 0
80 -81 0
-73 -80 81 0
79 -82 0
12 -82 0
-79 -12 82 0
-81 78 0
-82 78 0
81 82 -78 0
49 21 -84 0
-49 21 84 0
49 -21 84 0
-49 -21 -84 0
13 84 -85 0
-13 84 85 0
13 -84 85 0
-13 -84 -85 0
85 78 -55 0
-85 78 55 0
85 -78 55 0
-85 -78 -55 0
78 -86 0
85 -86 0
-78 -85 86 0
84 -87 0
13 -87 0
-84 -13 87 0
-86 83 0
-87 83 0
86 87 -83 0
49 22 -89 0
-49 22 89 0
49 -22 89 0
-49 -22 -89 0
14 89 -90 0
-14 89 90 0
14 -89 90 0
-14 -89 -90 0
90 83 -56 0
-90 83 56 0
90 -83 56 0
-90 -83 -56 0
83 -91 0
90 -91 0
-83 -90 91 0
89 -92 0
14 -92 0
-89 -14 92 0
-91 88 0
-92 88 0
91 92 -88 0
49 23 -93 0
-49 23 93 0
49 -23 93 0
-49 -23 -93 0
15 93 -94 0
-15 93 94 0
15 -93 94 0
-15 -93 -94 0
94 88 -57 0
-94 88 57 0
94 -88 57 0
-94 -88 -57 0
88 -95 0
94 -95 0
-88 -94 95 0
93 -96 0
15 -96 0
-93 -15 96 0
-95 31 0
-96 31 0
95 96 -31 0
31 16 -106 0
-31 16 106 0
31 -16 106 0
-31 -16 -106 0
7 106 -107 0
-7 106 107 0
7 -106 107 0
-7 -106 -107 0
107 31 -97 0
-107 31 97 0
107 -31 97 0
-107 -31 -97 0
31 -108 0
107 -108 0
-31 -107 108 0
106 -109 0
7 -109 0
-106 -7 109 0
-108 105 0
-109 105 0
108 109 -105 0
31 17 -111 0
-31 17 111 0
31 -17 111 0
-31 -17 -111 0
50 111 -112 0
-50 111 112 0
50 -111 112 0
-50 -111 -112 0
112 105 -98 0
-112 105 98 0
112 -105 98 0
-112 -105 -98 0
105 -113 0
112 -113 0
-105 -112 113 0
111 -114 0
50 -114 0
-111 -50 114 0
-113 110 0
-114 110 0
113 114 -110 0
31 18 -116 0
-31 18 116 0
31 -18 116 0
-31 -18 -116 0
51 116 -117 0
-51 116 117 0
51 -116 117 0
-51 -116 -117 0
117 110 -99 0
-117 110 99 0
117 -110 99 0
-117 -110 -99 0
110 -118 0
117 -118 0
-110 -117 118 0
116 -119 0
51 -119 0
-116 -51 119 0
-118 115 0
-119 115 0
118 119 -115 0
31 19 -121 0
-31 19 121 0
31 -19 121 0
-31 -19 -121 0
52 121 -122 0
-52 121 122 0
52 -121 122 0
-52 -121 -122 0
122 115 -100 0
-122 115 100 0
122 -115 100 0
-122 -115 -100 0
115 -123 0
122 -123 0
-115 -122 123 0
121 -124 0
52 -124 0
-121 -52 124 0
-123 120 0
-124 120 0
123 124 -120 0
31 20 -126 0
-31 20 126 0
31 -20 126 0
-31 -20 -126 0
53 126 -127 0
-53 126 127 0
53 -126 127 0
-53 -126 -127 0
127 120 -101 0
-127 120 101 0
127 -120 101 0
-127 -120 -101 0
120 -128 0
127 -128 0
-120 -127 128 0
126 -129 0
53 -129 0
-126 -53 129 0
-128 125 0
-129 125 0
128 129 -125 0
31 21 -131 0
-31 21 131 0
31 -21 131 0
-31 -21 -131 0
54 131 -132 0
-54 131 132 0
54 -131 132 0
-54 -131 -132 0
132 125 -102 0
-132 125 102 0
132 -125 102 0
-132 -125 -102 0
125 -133 0
132 -133 0
-125 -132 133 0
131 -134 0
54 -134 0
-131 -54 134 0
-133 130 0
-134 130 0
133 134 -130 0
31 22 -136 0
-31 22 136 0
31 -22 136 0
-31 -22 -136 0
55 136 -137 0
-55 136 137 0
55 -136 137 0
-55 -136 -137 0
137 130 -103 0
-137 130 103 0
137 -130 103 0
-137 -130 -103 0
130 -138 0
137 -138 0
-130 -137 138 0
136 -139 0
55 -139 0
-136 -55 139 0
-138 135 0
-139 135 0
138 139 -135 0
31 23 -140 0
-31 23 140 0
31 -23 140 0
-31 -23 -140 0
56 140 -141 0
-56 140 141 0
56 -140 141 0
-56 -140 -141 0
141 135 -104 0
-141 135 104 0
141 -135 104 0
-141 -135 -104 0
135 -142 0
141 -142 0
-135 -141 142 0
140 -143 0
56 -143 0
-140 -56 143 0
-142 30 0
-143 30 0
142 143 -30 0
30 16 -153 0
-30 16 153 0
30 -16 153 0
-30 -16 -153 0
6 153 -154 0
-6 153 154 0
6 -153 154 0
-6 -153 -154 0
154 30 -144 0
-154 30 144 0
154 -30 144 0
-154 -30 -144 0
30 -155 0
154 -155 0
-30 -154 155 0
153 -156 0
6 -156 0
-153 -6 156 0
-155 152 0
-156 152 0
155 156 -152 0
30 17 -158 0
-30 17 158 0
30 -17 158 0
-30 -17 -158 0
97 158 -159 0
-97 158 159 0
97 -158 159 0
-97 -158 -159 0
159 152 -145 0
-159 152 145 0
159 -152 145 0
-159 -152 -145 0
152 -160 0
159 -160 0
-152 -159 160 0
158 -161 0
97 -161 0
-158 -97 161 0
-160 157 0
-161 157 0
160 161 -157 0
30 18 -163 0
-30 18 163 0
30 -18 163 0
-30 -18 -163 0
98 163 -164 0
-98 163 164 0
98 -163 164 0
-98 -163 -164 0
164 157 -146 0
-164 157 146 0
164 -157 146 0
-164 -157 -146 0
157 -165 0
164 -165 0
-157 -164 165 0
163 -166 0
98 -166 0
-163 -98 166 0
-165 162 0
-166 162 0
165 166 -162 0
30 19 -168 0
-30 19 168 0
30 -19 168 0
-30 -19 -168 0
99 168 -169 0
-99 168 169 0
99 -168 169 0
-99 -168 -169 0
169 162 -147 0
-169 162 147 0
169 -162 147 0
-169 -162 -147 0
162 -170 0
169 -170 0
-162 -169 170 0
168 -171 0
99 -171 0
-168 -99 171 0
-170 167 0
-171 167 0
170 171 -167 0
30 20 -173 0
-30 20 173 0
30 -20 173 0
-30 -20 -173 0
100 173 -174 0
-100 173 174 0
100 -173 174 0
-100 -173 -174 0
174 167 -148 0
-174 167 148 0
174 -167 148 0
-174 -167 -148 0
167 -175 0
174 -175 0
-167 -174 175 0
173 -176 0
100 -176 0
-173 -100 176 0
-175 172 0
-176 172 0
175 176 -172 0
30 21 -178 0
-30 21 178 0
30 -21 178 0
-30 -21 -178 0
101 178 -179 0
-101 178 179 0
101 -178 179 0
-101 -178 -179 0
179 172 -149 0
-179 172 149 0
179 -172 149 0
-179 -172 -149 0
172 -180 0
179 -180 0
-172 -179 180 0
178 -181 0
101 -181 0
-178 -101 181 0
-180 177 0
-181 177 0
180 181 -177 0
30 22 -183 0
-30 22 183 0
30 -22 183 0
-30 -22 -183 0
102 183 -184 0
-102 183 184 0
102 -183 184 0
-102 -183 -184 0
184 177 -150 0
-184 177 150 0
184 -177 150 0
-184 -177 -150 0
177 -185 0
184 -185 0
-177 -184 185 0
183 -186 0
102 -186 0
-183 -102 186 0
-185 182 0
-186 182 0
185 186 -182 0
30 23 -187 0
-30 23 187 0
30 -23 187 0
-30 -23 -187 0
103 187 -188 0
-103 187 188 0
103 -187 188 0
-103 -187 -188 0
188 182 -151 0
-188 182 151 0
188 -182 151 0
-188 -182 -151 0
182 -189 0
188 -189 0
-182 -188 189 0
187 -190 0
103 -190 0
-187 -103 190 0
-189 29 0
-190 29 0
189 190 -29 0
29 16 -200 0
-29 16 200 0
29 -16 200 0
-29 -16 -200 0
5 200 -201 0
-5 200 201 0
5 -200 201 0
-5 -200 -201 0
201 29 -191 0
-201 29 191 0
201 -29 191 0
-201 -29 -191 0
29 -202 0
201 -202 0
-29 -201 202 0
200 -203 0
5 -203 0
-200 -5 203 0
-202 199 0
-203 199 0
202 203 -199 0
29 17 -205 0
-29 17 205 0
29 -17 205 0
-29 -17 -205 0
144 205 -206 0
-144 205 206 0
144 -205 206 0
-144 -205 -206 0
206 199 -192 0
-206 199 192 0
206 -199 192 0
-206 -199 -192 0
199 -207 0
206 -207 0
-199 -206 207 0
205 -208 0
144 -208 0
-205 -144 208 0
-207 204 0
-208 204 0
207 208 -204 0
29 18 -210 0
-29 18 210 0
29 -18 210 0
-29 -18 -210 0
145 210 -211 0
-145 210 211 0
145 -210 211 0
-145 -210 -211 0
211 204 -193 0
-211 204 193 0
211 -204 193 0
-211 -204 -193 0
204 -212 0
211 -212 0
-204 -211 212 0
210 -213 0
145 -213 0
-210 -145 213 0
-212 209 0
-213 209 0
212 213 -209 0
29 19 -215 0
-29 19 215 0
29 -19 215 0
-29 -19 -215 0
146 215 -216 0
-146 215 216 0
146 -215 216 0
-146 -215 -216 0
216 209 -194 0
-216 209 194 0
216 -209 194 0
-216 -209 -194 0
209 -217 0
216 -217 0
-209 -216 217 0
215 -218 0
146 -218 0
-215 -146 218 0
-217 214 0
-218 214 0
217 218 -214 0
29 20 -220 0
-29 20 220 0
29 -20 220 0
-29 -20 -220 0
147 220 -221 0
-147 220 221 0
147 -220 221 0
-147 -220 -221 0
221 214 -195 0
-221 214 195 0
221 -214 195 0
-221 -214 -195 0
214 -222 0
221 -222 0
-214 -221 222 0
220 -223 0
147 -223 0
-220 -147 223 0
-222 219 0
-223 219 0
222 223 -219 0
29 21 -225 0
-29 21 225 0
29 -21 225 0
-29 -21 -225 0
148 225 -226 0
-148 225 226 0
148 -225 226 0
-148 -225 -226 0
226 219 -196 0
-226 219 196 0
226 -219 196 0
-226 -219 -196 0
219 -227 0
226 -227 0
-219 -226 227 0
225 -228 0
148 -228 0
-225 -148 228 0
-227 224 0
-228 224 0
227 228 -224 0
29 22 -230 0
-29 22 230 0
29 -22 230 0
-29 -22 -230 0
149 230 -231 0
-149 230 231 0
149 -230 231 0
-149 -230 -231 0
231 224 -197 0
-231 224 197 0
231 -224 197 0
-231 -224 -197 0
224 -232 0
231 -232 0
-224 -231 232 0
230 -233 0
149 -233 0
-230 -149 233 0
-232 229 0
-233 229 0
232 233 -229 0
29 23 -234 0
-29 23 234 0
29 -23 234 0
-29 -23 -234 0
150 234 -235 0
-150 234 235 0
150 -234 235 0
-150 -234 -235 0
235 229 -198 0
-235 229 198 0
235 -229 198 0
-235 -229 -198 0
229 -236 0
235 -236 0
-229 -235 236 0
234 -237 0
150 -237 0
-234 -150 237 0
-236 28 0
-237 28 0
236 237 -28 0
28 16 -247 0
-28 16 247 0
28 -16 247 0
-28 -16 -247 0
4 247 -248 0
-4 247 248 0
4 -247 248 0
-4 -247 -248 0
248 28 -238 0
-248 28 238 0
248 -28 238 0
-248 -28 -238 0
28 -249 0
248 -249 0
-28 -248 249 0
247 -250 0
4 -250 0
-247 -4 250 0
-249 246 0
-250 246 0
249 250 -246 0
28 17 -252 0
-28 17 252 0
28 -17 252 0
-28 -17 -252 0
191 252 -253 0
-191 252 253 0
191 -252 253 0
-191 -252 -253 0
253 246 -239 0
-253 246 239 0
253 -246 239 0
-253 -246 -239 0
246 -254 0
253 -254 0
-246 -253 254 0
252 -255 0
191 -255 0
-252 -191 255 0
-254 251 0
-255 251 0
254 255 -251 0
28 18 -257 0
-28 18 257 0
28 -18 257 0
-28 -18 -257 0
192 257 -258 0
-192 257 258 0
192 -257 258 0
-192 -257 -258 0
258 251 -240 0
-258 251 240 0
258 -251 240 0
-258 -251 -240 0
251 -259 0
258 -259 0
-251 -258 259 0
257 -260 0
192 -260 0
-257 -192 260 0
-259 256 0
-260 256 0
259 260 -256 0
28 19 -262 0
-28 19 262 0
28 -19 262 0
-28 -19 -262 0
193 262 -263 0
-193 262 263 0
193 -262 263 0
-193 -262 -263 0
263 256 -241 0
-263 256 241 0
263 -256 241 0
-263 -256 -241 0
256 -264 0
263 -264 0
-256 -263 264 0
262 -265 0
193 -265 0
-262 -193 265 0
-264 261 0
-265 261 0
264 265 -261 0
28 20 -267 0
-28 20 267 0
28 -20 267 0
-28 -20 -267 0
194 267 -268 0
-194 267 268 0
194 -267 268 0
-194 -267 -268 0
268 261 -242 0
-268 261 242 0
268 -261 242 0
-268 -261 -242 0
261 -269 0
268 -269 0
-261 -268 269 0
267 -270 0
194 -270 0
-267 -194 270 0
-269 266 0
-270 266 0
269 270 -266 0
28 21 -272 0
-28 21 272 0
28 -21 272 0
-28 -21 -272 0
195 272 -273 0
-195 272 273 0
195 -272 273 0
-195 -272 -273 0
273 266 -243 0
-273 266 243 0
273 -266 243 0
-273 -266 -243 0
266 -274 0
273 -274 0
-266 -273 274 0
272 -275 0
195 -275 0
-272 -195 275 0
-274 271 0
-275 271 0
274 275 -271 0
28 22 -277 0
-28 22 277 0
28 -22 277 0
-28 -22 -277 0
196 277 -278 0
-196 277 278 0
196 -277 278 0
-196 -277 -278 0
278 271 -244 0
-278 271 244 0
278 -271 244 0
-278 -271 -244 0
271 -279 0
278 -279 0
-271 -278 279 0
277 -280 0
196 -280 0
-277 -196 280 0
-279 276 0
-280 276 0
279 280 -276 0
28 23 -281 0
-28 23 281 0
28 -23 281 0
-28 -23 -281 0
197 281 -282 0
-197 281 282 0
197 -281 282 0
-197 -281 -282 0
282 276 -245 0
-282 276 245 0
282 -276 245 0
-282 -276 -245 0
276 -283 0
282 -283 0
-276 -282 283 0
281 -284 0
197 -284 0
-281 -197 284 0
-283 27 0
-284 27 0
283 284 -27 0
27 16 -294 0
-27 16 294 0
27 -16 294 0
-27 -16 -294 0
3 294 -295 0
-3 294 295 0
3 -294 295 0
-3 -294 -295 0
295 27 -285 0
-295 27 285 0
295 -27 285 0
-295 -27 -285 0
27 -296 0
295 -296 0
-27 -295 296 0
294 -297 0
3 -297 0
-294 -3 297 0
-296 293 0
-297 293 0
296 297 -293 0
27 17 -299 0
-27 17 299 0
27 -17 299 0
-27 -17 -299 0
238 299 -300 0
-238 299 300 0
238 -299 300 0
-238 -299 -300 0
300 293 -286 0
-300 293 286 0
300 -293 286 0
-300 -293 -286 0
293 -301 0
300 -301 0
-293 -300 301 0
299 -302 0
238 -302 0
-299 -238 302 0
-301 298 0
-302 298 0
301 302 -298 0
27 18 -304 0
-27 18 304 0
27 -18 304 0
-27 -18 -304 0
239 304 -305 0
-239 304 305 0
239 -304 305 0
-239 -304 -305 0
305 298 -287 0
-305 298 287 0
305 -298 287 0
-305 -298 -287 0
298 -306 0
305 -306 0
-298 -305 306 0
304 -307 0
239 -307 0
-304 -239 307 0
-306 303 0
-307 303 0
306 307 -303 0
27 19 -309 0
-27 19 309 0
27 -19 309 0
-27 -19 -309 0
240 309 -310 0
-240 309 310 0
240 -309 310 0
-240 -309 -310 0
310 303 -288 0
-310 303 288 0
310 -303 288 0
-310 -303 -288 0
303 -311 0
310 -311 0
-303 -310 311 0
309 -312 0
240 -312 0
-309 -240 312 0
-311 308 0
-312 308 0
311 312 -308 0
27 20 -314 0
-27 20 314 0
27 -20 314 0
-27 -20 -314 0
241 314 -315 0
-241 314 315 0
241 -314 315 0
-241 -314 -315 0
315 308 -289 0
-315 308 289 0
315 -308 289 0
-315 -308 -289 0
308 -316 0
315 -316 0
-308 -315 316 0
314 -317 0
241 -317 0
-314 -241 317 0
-316 313 0
-317 313 0
316 317 -313 0
27 21 -319 0
-27 21 319 0
27 -21 319 0
-27 -21 -319 0
242 319 -320 0
-242 319 320 0
242 -319 320 0
-242 -319 -320 0
320 313 -290 0
-320 313 290 0
320 -313 290 0
-320 -313 -290 0
313 -321 0
320 -321 0
-313 -320 321 0
319 -322 0
242 -322 0
-319 -242 322 0
-321 318 0
-322 318 0
321 322 -318 0
27 22 -324 0
-27 22 324 0
27 -22 324 0
-27 -22 -324 0
243 324 -325 0
-243 324 325 0
243 -324 325 0
-243 -324 -325 0
325 318 -291 0
-325 318 291 0
325 -318 291 0
-325 -318 -291 0
318 -326 0
325 -326 0
-318 -325 326 0
324 -327 0
243 -327 0
-324 -243 327 0
-326 323 0
-327 323 0
326 327 -323 0
27 23 -328 0
-27 23 328 0
27 -23 328 0
-27 -23 -328 0
244 328 -329 0
-244 328 329 0
244 -328 329 0
-244 -328 -329 0
329 323 -292 0
-329 323 292 0
329 -323 292 0
-329 -323 -292 0
323 -330 0
329 -330 0
-323 -329 330 0
328 -331 0
244 -331 0
-328 -244 331 0
-330 26 0
-331 26 0
330 331 -26 0
26 16 -341 0
-26 16 341 0
26 -16 341 0
-26 -16 -341 0
2 341 -342 0
-2 341 342 0
2 -341 342 0
-2 -341 -342 0
342 26 -332 0
-342 26 332 0
342 -26 332 0
-342 -26 -332 0
26 -343 0
342 -343 0
-26 -342 343 0
341 -344 0
2 -344 0
-341 -2 344 0
-343 340 0
-344 340 0
343 344 -340 0
26 17 -346 0
-26 17 346 0
26 -17 346 0
-26 -17 -346 0
285 346 -347 0
-285 346 347 0
285 -346 347 0
-285 -346 -347 0
347 340 -333 0
-347 340 333 0
347 -340 333 0
-347 -340 -333 0
340 -348 0
347 -348 0
-340 -347 348 0
346 -349 0
285 -349 0
-346 -285 349 0
-348 345 0
-349 345 0
348 349 -345 0
26 18 -351 0
-26 18 351 0
26 -18 351 0
-26 -18 -351 0
286 351 -352 0
-286 351 352 0
286 -351 352 0
-286 -351 -352 0
352 345 -334 0
-352 345 334 0
352 -345 334 0
-352 -345 -334 0
345 -353 0
352 -353 0
-345 -352 353 0
351 -354 0
286 -354 0
-351 -286 354 0
-353 350 0
-354 350 0
353 354 -350 0
26 19 -356 0
-26 19 356 0
26 -19 356 0
-26 -19 -356 0
287 356 -357 0
-287 356 357 0
287 -356 357 0
-287 -356 -357 0
357 350 -335 0
-357 350 335 0
357 -350 335 0
-357 -350 -335 0
350 -358 0
357 -358 0
-350 -357 358 0
356 -359 0
287 -359 0
-356 -287 359 0
-358 355 0
-359 355 0
358 359 -355 0
26 20 -361 0
-26 20 361 0
26 -20 361 0
-26 -20 -361 0
288 361 -362 0
-288 361 362 0
288 -361 362 0
-288 -361 -362 0
362 355 -336 0
-362 355 336 0
362 -355 336 0
-362 -355 -336 0
355 -363 0
362 -363 0
-355 -362 363 0
361 -364 0
288 -364 0
-361 -288 364 0
-363 360 0
-364 360 0
363 364 -360 0
26 21 -366 0
-26 21 366 0
26 -21 366 0
-26 -21 -366 0
289 366 -367 0
-289 366 367 0
289 -366 367 0
-289 -366 -367 0
367 360 -337 0
-367 360 337 0
367 -360 337 0
-367 -360 -337 0
360 -368 0
367 -368 0
-360 -367 368 0
366 -369 0
289 -369 0
-366 -289 369 0
-368 365 0
-369 365 0
368 369 -365 0
26 22 -371 0
-26 22 371 0
26 -22 371 0
-26 -22 -371 0
290 371 -372 0
-290 371 372 0
290 -371 372 0
-290 -371 -372 0
372 365 -338 0
-372 365 338 0
372 -365 338 0
-372 -365 -338 0
365 -373 0
372 -373 0
-365 -372 373 0
371 -374 0
290 -374 0
-371 -290 374 0
-373 370 0
-374 370 0
373 374 -370 0
26 23 -375 0
-26 23 375 0
26 -23 375 0
-26 -23 -375 0
291 375 -376 0
-291 375 376 0
291 -375 376 0
-291 -375 -376 0
376 370 -339 0
-376 370 339 0
376 -370 339 0
-376 -370 -339 0
370 -377 0
376 -377 0
-370 -376 377 0
375 -378 0
291 -378 0
-375 -291 378 0
-377 25 0
-378 25 0
377 378 -25 0
25 16 -380 0
-25 16 380 0
25 -16 380 0
-25 -16 -380 0
1 380 -381 0
-1 380 381 0
1 -380 381 0
-1 -380 -381 0
381 25 -32 0
-381 25 32 0
381 -25 32 0
-381 -25 -32 0
25 -382 0
381 -382 0
-25 -381 382 0
380 -383 0
1 -383 0
-380 -1 383 0
-382 379 0
-383 379 0
382 383 -379 0
25 17 -385 0
-25 17 385 0
25 -17 385 0
-25 -17 -385 0
332 385 -386 0
-332 385 386 0
332 -385 386 0
-332 -385 -386 0
386 379 -33 0
-386 379 33 0
386 -379 33 0
-386 -379 -33 0
379 -387 0
386 -387 0
-379 -386 387 0
385 -388 0
332 -388 0
-385 -332 388 0
-387 384 0
-388 384 0
387 388 -384 0
25 18 -390 0
-25 18 390 0
25 -18 390 0
-25 -18 -390 0
333 390 -391 0
-333 390 391 0
333 -390 391 0
-333 -390 -391 0
391 384 -34 0
-391 384 34 0
391 -384 34 0
-391 -384 -34 0
384 -392 0
391 -392 0
-384 -391 392 0
390 -393 0
333 -393 0
-390 -333 393 0
-392 389 0
-393 389 0
392 393 -389 0
25 19 -395 0
-25 19 395 0
25 -19 395 0
-25 -19 -395 0
334 395 -396 0
-334 395 396 0
334 -395 396 0
-334 -395 -396 0
396 389 -35 0
-396 389 35 0
396 -389 35 0
-396 -389 -35 0
389 -397 0
396 -397 0
-389 -396 397 0
395 -398 0
334 -398 0
-395 -334 398 0
-397 394 0
-398 394 0
397 398 -394 0
25 20 -400 0
-25 20 400 0
25 -20 400 0
-25 -20 -400 0
335 400 -401 0
-335 400 401 0
335 -400 401 0
-335 -400 -401 0
401 394 -36 0
-401 394 36 0
401 -394 36 0
-401 -394 -36 0
394 -402 0
401 -402 0
-394 -401 402 0
400 -403 0
335 -403 0
-400 -335 403 0
-402 399 0
-403 399 0
402 403 -399 0
25 21 -405 0
-25 21 405 0
25 -21 405 0
-25 -21 -405 0
336 405 -406 0
-336 405 406 0
336 -405 406 0
-336 -405 -406 0
406 399 -37 0
-406 399 37 0
406 -399 37 0
-406 -399 -37 0
399 -407 0
406 -407 0
-399 -406 407 0
405 -408 0
336 -408 0
-405 -336 408 0
-407 404 0
-408 404 0
407 408 -404 0
25 22 -410 0
-25 22 410 0
25 -22 410 0
-25 -22 -410 0
337 410 -411 0
-337 410 411 0
337 -410 411 0
-337 -410 -411 0
411 404 -38 0
-411 404 38 0
411 -404 38 0
-411 -404 -38 0
404 -412 0
411 -412 0
-404 -411 412 0
410 -413 0
337 -413 0
-410 -337 413 0
-412 409 0
-413 409 0
412 413 -409 0
25 23 -414 0
-25 23 414 0
25 -23 414 0
-25 -23 -414 0
338 414 -415 0
-338 414 415 0
338 -414 415 0
-338 -414 -415 0
415 409 -39 0
-415 409 39 0
415 -409 39 0
-415 -409 -39 0
409 -416 0
415 -416 0
-409 -415 416 0
414 -417 0
338 -417 0
-414 -338 417 0
-416 24 0
-417 24 0
416 417 -24 0
